% seed = 0

mint = 39;
% maxt = 179;

nActs = 62;
dur = [0,2,4,3,1,2,3,1,4,1,3,3,2,3,4,3,2,5,3,5,2,3,3,4,3,3,3,2,5,2,2,8,3,1,4,4,2,2,3,2,4,2,3,4,4,3,5,2,2,3,2,2,1,3,2,5,5,2,5,3,2,0];

nSkills = 12;
sreq = [| 0,0,0,0,0,0,0,0,0,0,0,0,
	| 0,0,0,0,0,1,0,0,0,0,0,1,
	| 0,0,2,0,1,0,0,0,0,0,0,1,
	| 0,0,0,0,1,1,2,0,0,0,1,0,
	| 0,0,2,1,0,1,0,0,0,0,1,0,
	| 0,0,2,0,1,0,0,0,0,1,1,0,
	| 0,0,1,0,0,0,0,0,0,0,0,1,
	| 0,0,0,0,0,0,0,0,0,1,0,1,
	| 0,0,1,0,0,0,0,0,0,0,0,0,
	| 0,0,1,0,0,0,0,0,0,0,1,0,
	| 0,0,0,0,1,1,0,0,1,0,1,1,
	| 0,0,0,0,1,1,0,0,1,0,1,0,
	| 0,0,0,0,1,0,0,1,0,0,2,1,
	| 0,0,1,0,0,1,0,0,0,1,0,1,
	| 0,0,0,0,0,0,0,0,0,0,2,0,
	| 0,0,1,0,1,1,0,0,0,0,0,0,
	| 0,0,2,0,0,0,0,0,0,1,1,0,
	| 0,0,1,0,0,0,0,0,0,0,0,1,
	| 0,0,1,0,0,1,0,1,0,0,0,0,
	| 0,0,2,0,0,0,0,0,0,2,0,1,
	| 0,1,1,1,0,0,0,0,0,0,2,0,
	| 0,0,0,0,0,1,1,0,0,0,0,0,
	| 0,1,0,0,0,0,0,0,0,1,0,0,
	| 0,0,0,0,0,0,1,1,0,0,0,0,
	| 0,1,1,0,1,0,0,0,0,0,1,1,
	| 0,1,0,0,0,0,0,0,0,0,0,0,
	| 0,0,1,0,0,0,0,0,1,1,0,0,
	| 0,1,1,0,1,0,0,0,0,0,1,0,
	| 0,0,0,0,0,0,0,1,0,0,1,0,
	| 0,0,0,0,0,0,0,1,0,0,1,1,
	| 0,0,1,0,1,0,0,0,1,0,0,0,
	| 0,0,1,0,0,1,0,0,0,1,0,0,
	| 0,0,0,0,0,0,0,0,0,0,0,1,
	| 1,0,1,1,0,0,0,0,0,0,0,1,
	| 0,0,0,0,0,1,0,0,0,0,1,0,
	| 0,1,0,0,0,0,0,0,0,2,1,1,
	| 0,1,0,1,0,0,1,0,0,1,0,0,
	| 0,0,0,0,0,0,0,1,0,0,0,0,
	| 0,0,1,0,0,0,0,0,0,1,0,0,
	| 0,0,1,0,0,2,0,0,0,0,1,0,
	| 0,0,0,0,0,1,0,0,0,0,0,1,
	| 0,0,2,0,0,0,0,0,0,0,0,0,
	| 0,0,0,1,0,1,0,0,0,0,0,1,
	| 0,0,0,0,1,0,1,0,0,0,0,0,
	| 0,1,1,0,1,0,0,0,0,0,1,0,
	| 0,0,0,0,0,0,0,1,0,1,2,0,
	| 0,0,0,0,0,2,0,0,0,1,1,1,
	| 0,0,1,0,0,0,0,0,0,0,0,2,
	| 0,0,2,0,0,1,0,0,0,0,0,1,
	| 0,0,1,0,0,1,0,0,0,1,1,0,
	| 0,0,1,0,1,0,0,1,0,0,0,0,
	| 0,0,0,0,0,0,1,0,0,1,0,0,
	| 0,1,0,0,0,0,0,0,0,0,0,0,
	| 0,0,2,0,0,0,0,0,0,0,1,0,
	| 0,0,0,2,1,1,0,0,1,0,0,0,
	| 0,0,0,0,0,0,0,0,0,0,1,1,
	| 0,0,0,0,1,0,0,0,0,0,0,0,
	| 0,0,1,0,0,1,0,0,0,0,1,0,
	| 0,0,0,0,0,2,0,0,1,0,0,1,
	| 0,0,0,0,0,0,0,0,1,0,0,0,
	| 0,0,1,0,0,0,0,2,0,0,1,1,
	| 0,0,0,0,0,0,0,0,0,0,0,0, |];

% SumOfsreq = 186;

nResources = 15;
mastery = [| false,false,true,false,false,false,false,false,false,false,false,false,
	| false,false,false,false,false,false,false,false,false,false,false,true,
	| false,false,false,false,true,true,false,false,false,false,false,true,
	| false,false,false,false,true,true,false,false,false,false,false,false,
	| true,true,true,false,false,false,false,false,false,false,false,false,
	| false,false,false,false,false,false,false,false,false,false,true,true,
	| false,false,false,false,true,true,true,true,true,false,false,false,
	| false,false,false,true,true,true,true,true,true,true,true,true,
	| false,false,false,false,false,false,false,false,false,false,false,true,
	| false,false,false,false,false,false,false,false,false,true,true,true,
	| false,true,true,true,true,true,false,false,false,false,false,false,
	| false,false,true,false,false,false,false,false,false,false,false,false,
	| false,false,false,false,false,true,true,true,true,true,true,true,
	| false,false,false,false,false,false,true,true,true,true,true,true,
	| false,false,false,false,false,true,false,false,false,false,false,false, |];

nPrecs = 93;
pred = [1,1,1,2,2,3,3,3,4,4,5,5,5,6,6,7,7,8,8,9,10,11,11,11,12,12,12,13,14,14,15,16,16,17,18,18,18,19,20,20,21,22,23,24,24,25,25,26,27,27,28,29,30,31,31,32,33,33,34,35,35,36,37,38,38,39,40,40,41,42,43,43,44,45,46,47,48,49,49,50,51,52,53,53,54,55,56,57,58,58,59,60,61];
succ = [2,3,4,24,8,11,5,6,14,46,9,10,19,29,7,17,21,30,15,18,52,44,12,13,14,31,16,20,28,54,27,26,34,27,25,22,32,40,35,23,43,42,33,41,51,42,45,46,33,53,51,47,45,35,55,38,36,39,55,61,37,45,54,50,52,48,59,46,42,49,49,55,57,50,56,57,50,58,52,56,57,59,58,54,56,60,60,59,60,61,62,62,62];

nUnrels = 1290;
unpred = [2,2,2,2,2,2,2,2,2,2,2,2,2,2,2,2,2,2,2,2,2,2,2,2,2,2,2,2,2,2,2,2,2,2,2,3,3,3,3,3,3,4,4,4,4,4,4,4,4,4,4,4,4,4,4,4,4,4,4,4,4,4,4,4,4,4,4,4,4,4,4,4,4,4,4,4,4,4,4,4,4,4,4,4,4,4,4,4,4,5,5,5,5,5,5,5,5,5,5,5,5,5,5,5,5,5,5,5,5,5,5,5,5,5,5,5,5,5,5,5,5,5,5,5,5,6,6,6,6,6,6,6,6,6,6,6,6,6,6,6,6,6,6,6,6,6,6,6,6,6,6,6,6,6,6,6,7,7,7,7,7,7,7,7,7,7,7,7,7,7,7,7,7,7,7,7,7,7,7,7,7,7,7,7,7,7,7,7,7,7,8,8,8,8,8,8,8,8,8,8,8,8,8,8,8,8,8,8,8,8,8,8,8,8,8,8,8,8,8,8,8,8,8,8,8,8,8,8,9,9,9,9,9,9,9,9,9,9,9,9,9,9,9,9,9,9,9,9,9,9,9,9,9,9,9,9,9,9,9,9,9,9,9,9,9,10,10,10,10,10,10,10,10,10,10,10,10,10,10,10,10,10,10,10,10,10,10,10,10,10,10,10,10,10,10,10,10,10,10,10,10,10,10,10,10,10,10,10,10,10,10,10,10,10,11,11,11,11,11,11,11,11,11,11,11,11,11,11,11,11,11,11,11,11,11,11,12,12,12,12,12,12,12,12,12,12,12,12,12,12,12,12,12,12,12,12,12,12,12,12,12,12,12,12,12,12,12,12,13,13,13,13,13,13,13,13,13,13,13,13,13,13,13,13,13,13,13,13,13,13,13,13,13,13,13,13,13,13,13,13,13,13,14,14,14,14,14,14,14,14,14,14,14,14,14,14,14,14,14,14,14,14,14,14,14,14,14,14,14,14,14,14,14,14,14,14,14,14,14,14,14,14,15,15,15,15,15,15,15,15,15,15,15,15,15,15,15,15,15,15,15,15,15,15,15,15,15,15,15,15,15,15,15,15,15,16,16,16,16,16,16,16,16,16,16,16,16,16,16,16,16,16,16,16,16,16,16,16,16,16,16,16,16,16,16,16,16,16,16,16,16,16,16,16,17,17,17,17,17,17,17,17,17,17,17,17,17,17,17,17,17,17,17,17,17,17,17,17,17,17,17,17,17,17,17,18,18,18,18,18,18,18,18,18,18,18,18,18,18,18,18,18,18,18,18,18,18,18,18,18,18,18,18,18,19,19,19,19,19,19,19,19,19,19,19,19,19,19,19,19,19,19,19,19,19,19,19,19,19,19,19,19,19,19,19,19,19,19,19,19,19,20,20,20,20,20,20,20,20,20,20,20,20,20,20,20,20,20,20,20,20,20,20,20,20,20,20,20,20,21,21,21,21,21,21,21,21,21,21,21,21,21,21,21,21,21,21,21,21,21,21,21,21,21,21,21,21,21,21,21,21,22,22,22,22,22,22,22,22,22,22,22,22,22,22,22,22,22,22,22,22,22,22,22,22,22,22,22,22,22,22,22,22,23,23,23,23,23,23,23,23,23,23,23,23,23,23,23,23,23,23,23,23,23,23,23,23,23,23,23,23,23,23,24,24,24,24,24,24,24,24,24,24,24,24,24,24,24,24,24,24,24,24,24,24,24,24,24,24,24,25,25,25,25,25,25,25,25,25,25,25,25,25,25,25,25,25,25,25,25,25,25,25,25,25,25,26,26,26,26,26,26,26,26,26,26,26,26,26,26,26,26,26,26,26,26,26,26,26,26,26,26,26,26,26,26,26,26,27,27,27,27,27,27,27,27,27,27,27,27,27,27,27,27,27,27,27,27,27,27,28,28,28,28,28,28,28,28,28,28,28,28,28,28,28,28,28,28,28,28,28,28,28,28,28,28,28,28,28,28,29,29,29,29,29,29,29,29,29,29,29,29,29,29,29,29,29,29,29,29,29,29,29,29,29,29,29,29,29,30,30,30,30,30,30,30,30,30,30,30,30,30,30,30,30,30,30,30,30,30,30,30,30,30,30,30,31,31,31,31,31,31,31,31,31,31,31,31,31,31,31,31,31,31,31,31,31,31,31,32,32,32,32,32,32,32,32,32,32,32,32,32,32,32,32,32,32,32,32,32,32,32,33,33,33,33,33,33,33,33,33,33,33,33,33,33,33,33,33,33,33,33,33,34,34,34,34,34,34,34,34,34,34,34,34,34,34,34,34,34,34,34,34,34,34,34,34,34,35,35,35,35,35,35,35,35,35,35,35,35,35,35,35,35,35,35,35,35,35,36,36,36,36,36,36,36,36,36,36,36,36,36,36,36,36,36,36,36,36,36,37,37,37,37,37,37,37,37,37,37,37,37,37,37,37,37,37,37,37,37,37,38,38,38,38,38,38,38,38,38,38,38,38,38,38,38,38,38,38,39,39,39,39,39,39,39,39,39,39,39,39,39,39,39,39,39,39,40,40,40,40,40,40,40,40,40,40,40,40,40,40,40,40,40,41,41,41,41,41,41,41,41,41,41,41,41,41,42,42,42,42,42,42,42,42,42,42,42,42,42,43,43,43,43,43,43,43,43,43,43,43,44,44,44,44,44,44,44,44,44,44,44,44,44,44,44,45,45,45,45,45,45,45,45,45,45,45,45,45,46,46,46,46,46,46,46,46,46,46,46,46,46,47,47,47,47,47,47,47,47,47,47,47,47,48,48,48,48,48,48,48,48,48,48,49,49,49,49,49,49,49,50,50,50,50,50,50,50,50,50,51,51,51,51,51,51,51,51,52,52,52,52,52,52,52,52,53,53,53,54,54,54,54,54,55,55,55,55,55,56,56,56,56,57,57,57,58,59,59,60];
unsucc = [3,4,5,6,7,9,10,11,12,13,14,16,17,18,19,20,21,22,23,25,26,28,29,31,32,34,35,37,38,40,43,44,46,47,55,4,8,15,24,30,41,5,6,7,8,9,10,11,12,13,15,16,17,18,19,20,21,22,23,24,25,26,27,29,30,31,32,33,34,35,36,37,38,39,40,41,42,43,44,45,47,48,49,50,52,53,55,58,61,6,7,8,11,12,13,14,15,16,17,20,21,23,24,26,27,28,29,30,31,33,34,35,36,37,39,41,43,44,47,48,51,53,54,55,57,8,9,10,11,12,13,14,15,16,18,19,20,22,23,24,25,26,28,30,31,32,34,35,37,38,40,41,42,44,46,51,8,9,10,11,12,13,14,15,16,18,19,20,22,23,24,25,26,28,29,30,31,32,34,35,37,38,40,41,42,44,46,47,51,57,9,10,11,12,13,14,16,17,18,19,20,21,22,23,24,25,26,28,29,31,32,34,35,37,38,40,41,42,43,44,46,47,49,51,52,55,57,59,10,11,12,13,14,15,16,17,19,20,21,23,24,26,27,28,29,30,31,33,34,35,36,37,39,40,41,43,44,46,47,48,51,53,54,55,57,11,12,13,14,15,16,17,18,19,20,21,22,23,24,25,26,27,28,29,30,31,32,33,34,35,36,37,38,39,40,41,42,43,44,45,46,47,48,49,50,51,53,54,55,56,57,58,60,61,15,17,18,19,21,22,24,25,27,29,30,32,38,40,41,42,43,47,49,52,53,58,13,15,17,18,19,20,21,22,23,24,25,27,29,30,32,33,36,38,39,40,41,42,43,44,45,47,48,49,50,52,53,58,14,15,16,17,18,19,21,22,24,25,26,27,28,29,30,31,32,34,38,40,41,42,43,44,46,47,49,51,52,53,55,57,58,59,15,16,17,18,19,20,21,22,23,24,25,26,27,29,30,31,32,33,34,35,36,37,38,39,40,41,42,43,44,45,46,47,48,49,50,52,53,55,58,61,16,17,18,19,20,21,22,23,24,25,26,28,29,30,31,32,34,35,37,38,40,41,42,43,44,46,47,49,51,52,55,57,59,17,18,19,20,21,22,23,24,25,27,28,29,30,31,32,33,35,36,37,38,39,40,41,42,43,44,45,47,48,49,50,51,52,53,54,57,58,59,61,18,19,20,21,22,23,24,25,26,28,29,30,31,32,34,35,37,38,40,41,42,43,44,46,47,49,51,52,55,57,59,19,20,21,23,24,26,27,28,29,30,31,33,34,35,36,37,39,40,41,43,44,46,47,48,51,53,54,55,57,20,21,22,23,24,25,26,27,28,29,30,31,32,33,34,35,36,37,38,39,41,42,43,44,45,47,48,49,50,51,52,53,54,55,57,58,61,21,22,24,25,26,27,28,29,30,31,32,34,38,40,41,42,43,44,46,47,49,51,52,53,55,57,58,59,22,23,24,25,26,27,28,29,30,31,32,33,34,35,36,37,38,39,40,41,42,44,45,46,47,48,50,51,53,54,56,57,23,24,25,26,27,28,29,30,31,32,33,34,35,36,37,38,39,40,41,43,44,45,46,47,48,50,51,53,54,55,56,57,24,25,26,27,28,29,30,31,32,34,35,37,38,40,41,42,43,44,46,47,49,51,52,53,54,55,57,58,59,61,25,26,27,28,29,30,31,32,33,34,35,36,37,38,39,40,43,44,45,46,47,48,50,53,54,55,56,26,27,28,29,30,31,32,33,34,35,36,37,38,39,40,41,43,44,46,47,48,51,53,54,55,57,27,28,29,30,31,32,33,34,35,36,37,38,39,40,41,42,43,44,45,47,48,49,50,51,52,53,54,55,57,58,59,61,28,29,30,31,32,34,35,37,38,40,41,42,43,44,46,47,49,51,52,55,57,59,29,30,31,32,33,34,35,36,37,38,39,40,41,42,43,44,45,46,47,48,49,50,52,53,54,55,56,58,60,61,30,31,32,33,34,35,36,37,38,39,40,41,42,43,44,45,46,48,49,50,51,52,53,54,55,56,58,60,61,31,32,33,34,35,36,37,38,39,40,41,42,43,44,46,47,48,49,51,52,53,54,55,57,58,59,61,32,33,34,36,38,39,40,41,42,43,44,45,46,47,48,49,50,51,52,53,57,58,59,33,34,35,36,37,39,40,41,42,43,44,45,46,47,48,49,51,53,54,55,57,58,61,34,35,37,38,40,41,42,43,44,46,47,49,51,52,53,54,55,57,58,59,61,35,36,37,38,39,40,41,42,43,44,45,46,47,48,49,50,51,52,53,54,56,57,58,59,61,36,38,39,40,41,42,43,44,45,46,47,48,49,50,51,52,53,55,57,58,59,37,38,39,40,41,42,43,44,46,47,48,49,51,52,53,54,55,57,58,59,61,38,39,40,41,42,43,44,45,46,47,48,49,50,51,52,53,55,57,58,59,61,39,40,41,42,43,44,45,46,47,48,49,51,53,54,55,57,58,61,40,41,42,43,44,45,46,47,49,51,52,53,54,55,57,58,59,61,41,42,43,44,45,47,48,49,50,51,52,53,54,55,57,58,61,43,44,45,46,47,48,50,51,53,54,55,56,57,43,44,45,46,47,48,50,51,53,54,55,56,57,44,45,46,47,48,50,51,53,54,56,57,45,46,47,48,49,50,51,52,53,54,55,56,58,60,61,46,47,48,49,51,52,53,54,55,57,58,59,61,47,48,49,50,51,52,53,54,55,57,58,59,61,48,49,50,51,52,53,54,55,56,58,60,61,49,51,52,53,54,55,57,58,59,61,50,51,53,54,55,56,57,51,52,53,54,55,57,58,59,61,52,53,54,55,56,58,60,61,53,54,55,56,57,58,60,61,55,57,59,55,57,58,59,61,56,57,58,59,61,57,58,59,61,58,60,61,59,60,61,61];

USEFUL_RES = [{},
	{2,3,4,6,7,8,9,10,11,13,14,15},
	{1,2,3,4,5,6,7,8,9,10,11,12,13,14},
	{3,4,6,7,8,10,11,13,14,15},
	{1,3,4,5,6,7,8,10,11,12,13,14,15},
	{1,3,4,5,6,7,8,10,11,12,13,14},
	{1,2,3,5,6,8,9,10,11,12,13,14},
	{2,3,6,8,9,10,13,14},
	{1,5,11,12},
	{1,5,6,8,10,11,12,13,14},
	{2,3,4,6,7,8,9,10,11,13,14,15},
	{3,4,6,7,8,10,11,13,14,15},
	{2,3,4,6,7,8,9,10,11,13,14},
	{1,2,3,4,5,6,7,8,9,10,11,12,13,14,15},
	{6,8,10,13,14},
	{1,3,4,5,7,8,11,12,13,15},
	{1,5,6,8,10,11,12,13,14},
	{1,2,3,5,6,8,9,10,11,12,13,14},
	{1,3,4,5,7,8,11,12,13,14,15},
	{1,2,3,5,6,8,9,10,11,12,13,14},
	{1,5,6,8,10,11,12,13,14},
	{3,4,7,8,11,13,14,15},
	{5,8,10,11,13,14},
	{7,8,13,14},
	{1,2,3,4,5,6,7,8,9,10,11,12,13,14},
	{5,11},
	{1,5,7,8,10,11,12,13,14},
	{1,3,4,5,6,7,8,10,11,12,13,14},
	{6,7,8,10,13,14},
	{2,3,6,7,8,9,10,13,14},
	{1,3,4,5,7,8,11,12,13,14},
	{1,3,4,5,7,8,10,11,12,13,14,15},
	{2,3,6,8,9,10,13,14},
	{1,2,3,5,6,8,9,10,11,12,13,14},
	{3,4,6,7,8,10,11,13,14,15},
	{2,3,5,6,8,9,10,11,13,14},
	{5,7,8,10,11,13,14},
	{7,8,13,14},
	{1,5,8,10,11,12,13,14},
	{1,3,4,5,6,7,8,10,11,12,13,14,15},
	{2,3,4,6,7,8,9,10,11,13,14,15},
	{1,5,11,12},
	{2,3,4,6,7,8,9,10,11,13,14,15},
	{3,4,7,8,11,13,14},
	{1,3,4,5,6,7,8,10,11,12,13,14},
	{6,7,8,10,13,14},
	{2,3,4,6,7,8,9,10,11,13,14,15},
	{1,2,3,5,6,8,9,10,11,12,13,14},
	{1,2,3,4,5,6,7,8,9,10,11,12,13,14,15},
	{1,3,4,5,6,7,8,10,11,12,13,14,15},
	{1,3,4,5,7,8,11,12,13,14},
	{7,8,10,13,14},
	{5,11},
	{1,5,6,8,10,11,12,13,14},
	{3,4,7,8,11,13,14,15},
	{2,3,6,8,9,10,13,14},
	{3,4,7,8,11},
	{1,3,4,5,6,7,8,10,11,12,13,14,15},
	{2,3,4,6,7,8,9,10,11,13,14,15},
	{7,8,13,14},
	{1,2,3,5,6,7,8,9,10,11,12,13,14},
	{}];

POTENTIAL_ACT = [{3,5,6,7,9,10,14,16,17,18,19,20,21,25,27,28,31,32,34,39,40,42,45,48,49,50,51,54,58,61},
	{2,3,7,8,11,13,14,18,20,25,30,33,34,36,41,43,47,48,49,56,59,61},
	{2,3,4,5,6,7,8,11,12,13,14,16,18,19,20,22,25,28,30,31,32,33,34,35,36,40,41,43,44,45,47,48,49,50,51,55,56,57,58,59,61},
	{2,3,4,5,6,11,12,13,14,16,19,22,25,28,31,32,35,40,41,43,44,45,47,49,50,51,55,57,58,59},
	{3,5,6,7,9,10,14,16,17,18,19,20,21,23,25,26,27,28,31,32,34,36,37,39,40,42,45,48,49,50,51,53,54,58,61},
	{2,3,4,5,6,7,8,10,11,12,13,14,15,17,18,20,21,25,28,29,30,33,34,35,36,40,41,43,45,46,47,48,49,50,54,56,58,59,61},
	{2,3,4,5,6,11,12,13,14,16,19,22,24,25,27,28,29,30,31,32,35,37,38,40,41,43,44,45,46,47,49,50,51,52,55,57,58,59,60,61},
	{2,3,4,5,6,7,8,10,11,12,13,14,15,16,17,18,19,20,21,22,23,24,25,27,28,29,30,31,32,33,34,35,36,37,38,39,40,41,43,44,45,46,47,48,49,50,51,52,54,55,56,57,58,59,60,61},
	{2,3,7,8,11,13,14,18,20,25,30,33,34,36,41,43,47,48,49,56,59,61},
	{2,3,4,5,6,7,8,10,11,12,13,14,15,17,18,20,21,23,25,27,28,29,30,32,33,34,35,36,37,39,40,41,43,45,46,47,48,49,50,52,54,56,58,59,61},
	{2,3,4,5,6,7,9,10,11,12,13,14,16,17,18,19,20,21,22,23,25,26,27,28,31,32,34,35,36,37,39,40,41,42,43,44,45,47,48,49,50,51,53,54,55,57,58,59,61},
	{3,5,6,7,9,10,14,16,17,18,19,20,21,25,27,28,31,32,34,39,40,42,45,48,49,50,51,54,58,61},
	{2,3,4,5,6,7,8,10,11,12,13,14,15,16,17,18,19,20,21,22,23,24,25,27,28,29,30,31,32,33,34,35,36,37,38,39,40,41,43,44,45,46,47,48,49,50,51,52,54,55,56,58,59,60,61},
	{2,3,4,5,6,7,8,10,11,12,13,14,15,17,18,19,20,21,22,23,24,25,27,28,29,30,31,32,33,34,35,36,37,38,39,40,41,43,44,45,46,47,48,49,50,51,52,54,55,56,58,59,60,61},
	{2,4,5,11,12,14,16,19,22,32,35,40,41,43,47,49,50,55,58,59}];
